HFSDDW
15	9	3
0	7	1	49	2	23
0	22	1	68	2	59
0	45	1	20	2	47
0	41	1	65	2	56
0	87	1	93	2	34
0	9	1	94	2	45
0	55	1	47	2	98
0	7	1	35	2	54
0	12	1	62	2	76
0	67	1	43	2	62
0	57	1	50	2	29
0	78	1	14	2	34
0	79	1	36	2	44
0	96	1	31	2	50
0	91	1	12	2	31
LBCmax: 308
RELDUE
-1	115	8	7
-1	127	7	8
-1	154	8	2
-1	135	3	1
-1	101	8	1
-1	145	3	6
-1	99	1	6
-1	100	2	5
-1	143	2	3
-1	106	3	7
-1	92	1	7
-1	100	9	3
-1	135	7	5
-1	98	4	5
-1	95	5	2
DDW
112	118
126	128
149	159
130	140
99	103
136	154
91	107
99	101
139	147
104	108
90	94
95	105
132	138
91	105
86	104
